c testni_primer_1min.txt 
c barvanje grafa [[1], [0, 1], [3, 5], [0, 4], [0, 3, 4], [2, 5, 7], [1, 2, 3]]
p cnf nekaj nekaj
00 01 02 0
-00 -01 0
-00 -02 0
-01 -02 0
-00 -10 0
-01 -11 0
-02 -12 0
10 11 12 0
-10 -11 0
-10 -12 0
-11 -12 0
-10 -00 0
-11 -01 0
-12 -02 0
-10 -10 0
-11 -11 0
-12 -12 0
20 21 22 0
-20 -21 0
-20 -22 0
-21 -22 0
-20 -30 0
-21 -31 0
-22 -32 0
-20 -50 0
-21 -51 0
-22 -52 0
30 31 32 0
-30 -31 0
-30 -32 0
-31 -32 0
-30 -00 0
-31 -01 0
-32 -02 0
-30 -40 0
-31 -41 0
-32 -42 0
40 41 42 0
-40 -41 0
-40 -42 0
-41 -42 0
-40 -00 0
-41 -01 0
-42 -02 0
-40 -30 0
-41 -31 0
-42 -32 0
-40 -40 0
-41 -41 0
-42 -42 0
50 51 52 0
-50 -51 0
-50 -52 0
-51 -52 0
-50 -20 0
-51 -21 0
-52 -22 0
-50 -50 0
-51 -51 0
-52 -52 0
-50 -70 0
-51 -71 0
-52 -72 0
60 61 62 0
-60 -61 0
-60 -62 0
-61 -62 0
-60 -10 0
-61 -11 0
-62 -12 0
-60 -20 0
-61 -21 0
-62 -22 0
-60 -30 0
-61 -31 0
-62 -32 0